benchmark/results/graph__10-1000-0.10-03_13/graph__10-1000-0.10-03_13_Quinton_Benders_aux.lp
\ This file has been generated by DOcplex
\ ENCODING=ISO-8859-1
\Problem name: Quinton Benders_auxiliary_sub

Minimize
 obj: 0.001286073113 pi_nr_a0 + 0.000980399681 pi_nr_a1
      + 0.001308345196 pi_nr_a2 + 0.001137725831 pi_nr_a3
      + 0.000925825465 pi_nr_a4 + 0.001678510834 pi_nr_a5
      + 0.001050402500 pi_nr_a6 + 0.002163094267 pi_nr_a7
      + 0.001185756696 pi_nr_a8 + 0.000841823926 pi_nr_a9 + pi_p_a2_a4
      + pi_p_a8_a9 + pi_p_a5_a3 + pi_p_a2_a9 + pi_p_a5_a6 + pi_p_a8_a3
      + 55.601562500000 pi_d_a0_a1_proc_2 + 6.052734375000 pi_d_a1_a0_proc_2
      + 652.054687500000 pi_d_a0_a2_proc_2 + 2668.875000000000 pi_d_a0_a2_proc_1
      + 31.326171875000 pi_d_a2_a0_proc_2 + 2048.146484375000 pi_d_a2_a0_proc_1
      + 81.863281250000 pi_d_a0_a3_proc_2 + 435.691406250000 pi_d_a0_a3_proc_1
      + 2158.361328125000 pi_d_a3_a0_proc_2
      + 2512.189453125000 pi_d_a3_a0_proc_1
      + 2568.779296875000 pi_d_a0_a4_proc_2
      + 2578.888671875000 pi_d_a0_a4_proc_1 + 15.164062500000 pi_d_a4_a0_proc_2
      + 25.273437500000 pi_d_a4_a0_proc_1 + 2608.218750000000 pi_d_a0_a5_proc_2
      + 3851.671875000000 pi_d_a0_a5_proc_1 + 31.326171875000 pi_d_a5_a0_proc_2
      + 1274.779296875000 pi_d_a5_a0_proc_1
      + 2583.095703125000 pi_d_a0_a6_proc_2
      + 3599.087890625000 pi_d_a0_a6_proc_1 + 26.121093750000 pi_d_a6_a0_proc_2
      + 1042.113281250000 pi_d_a6_a0_proc_1 + 60.656250000000 pi_d_a0_a7_proc_2
      + 2588 pi_d_a0_a7_proc_1 + 6.052734375000 pi_d_a7_a0_proc_2
      + 2533.396484375000 pi_d_a7_a0_proc_1
      + 3108.632812500000 pi_d_a0_a8_proc_1 + 6.052734375000 pi_d_a8_a0_proc_1
      + 481.177734375000 pi_d_a0_a9_proc_2 + 1749.904296875000 pi_d_a0_a9_proc_1
      + 1986.507812500000 pi_d_a9_a0_proc_2
      + 3255.234375000000 pi_d_a9_a0_proc_1 + 626.781250000000 pi_d_a1_a2_proc_2
      + 6.052734375000 pi_d_a2_a1_proc_2 + 2184.623046875000 pi_d_a1_a3_proc_2
      + 5.054687500000 pi_d_a3_a1_proc_2 + 2528.341796875000 pi_d_a1_a4_proc_2
      + 5.054687500000 pi_d_a4_a1_proc_2 + 2582.945312500000 pi_d_a1_a5_proc_2
      + 6.052734375000 pi_d_a5_a1_proc_2 + 2552.849609375000 pi_d_a1_a6_proc_2
      + 5.820312500000 pi_d_a6_a1_proc_2 + 11.107421875000 pi_d_a1_a7_proc_2
      + 5.054687500000 pi_d_a7_a1_proc_2 + 2412.068359375000 pi_d_a1_a9_proc_2
      + 5.070312500000 pi_d_a9_a1_proc_2 + 754.146484375000 pi_d_a2_a3_proc_2
      + 642.943359375000 pi_d_a2_a3_proc_1 + 2057.257812500000 pi_d_a3_a2_proc_2
      + 1946.054687500000 pi_d_a3_a2_proc_1
      + 2654.708984375000 pi_d_a2_a4_proc_2
      + 2199.787109375000 pi_d_a2_a4_proc_1 + 500.414062500000 pi_d_a4_a2_proc_2
      + 45.492187500000 pi_d_a4_a2_proc_1 + 526.593750000000 pi_d_a2_a5_proc_2
      + 1305.015625000000 pi_d_a2_a5_proc_1 + 114.636718750000 pi_d_a2_a5_proc_0
      + 2684.130859375000 pi_d_a5_a2_proc_2
      + 3462.552734375000 pi_d_a5_a2_proc_1
      + 2272.173828125000 pi_d_a5_a2_proc_0
      + 2690.076171875000 pi_d_a2_a6_proc_2
      + 3241.037109375000 pi_d_a2_a6_proc_1
      + 2551.072265625000 pi_d_a2_a6_proc_0 + 490.320312500000 pi_d_a6_a2_proc_2
      + 1041.281250000000 pi_d_a6_a2_proc_1 + 351.316406250000 pi_d_a6_a2_proc_0
      + 627.779296875000 pi_d_a2_a7_proc_2 + 2690.091796875000 pi_d_a2_a7_proc_1
      + 2791.185546875000 pi_d_a2_a7_proc_0 + 10.109375000000 pi_d_a7_a2_proc_2
      + 2072.421875000000 pi_d_a7_a2_proc_1
      + 2173.515625000000 pi_d_a7_a2_proc_0
      + 2588.166015625000 pi_d_a2_a8_proc_1
      + 3407.025390625000 pi_d_a2_a8_proc_0 + 167.636718750000 pi_d_a8_a2_proc_1
      + 986.496093750000 pi_d_a8_a2_proc_0 + 2730.513671875000 pi_d_a2_a9_proc_2
      + 3534.208984375000 pi_d_a2_a9_proc_1
      + 2551.072265625000 pi_d_a2_a9_proc_0 + 308.351562500000 pi_d_a9_a2_proc_2
      + 1112.046875000000 pi_d_a9_a2_proc_1 + 128.910156250000 pi_d_a9_a2_proc_0
      + 2588.841796875000 pi_d_a3_a4_proc_2 + 470.927734375000 pi_d_a3_a4_proc_1
      + 2123.125000000000 pi_d_a4_a3_proc_2 + 5.210937500000 pi_d_a4_a3_proc_1
      + 3674.738281250000 pi_d_a3_a5_proc_2
      + 2790.167968750000 pi_d_a3_a5_proc_1
      + 1092.830078125000 pi_d_a5_a3_proc_2 + 208.259765625000 pi_d_a5_a3_proc_1
      + 1637.742187500000 pi_d_a3_a6_proc_2 + 525.710937500000 pi_d_a3_a6_proc_1
      + 3099.498046875000 pi_d_a6_a3_proc_2
      + 1987.466796875000 pi_d_a6_a3_proc_1
      + 2183.625000000000 pi_d_a3_a7_proc_2
      + 2582.945312500000 pi_d_a3_a7_proc_1 + 11.107421875000 pi_d_a7_a3_proc_2
      + 410.427734375000 pi_d_a7_a3_proc_1 + 980.546875000000 pi_d_a3_a8_proc_1
      + 6.115234375000 pi_d_a8_a3_proc_1 + 3530.404296875000 pi_d_a3_a9_proc_2
      + 2671.107421875000 pi_d_a3_a9_proc_1
      + 1065.304687500000 pi_d_a9_a3_proc_2 + 206.007812500000 pi_d_a9_a3_proc_1
      + 3800.996093750000 pi_d_a4_a5_proc_2
      + 2572.707031250000 pi_d_a4_a5_proc_1
      + 1310.291015625000 pi_d_a5_a4_proc_2 + 82.001953125000 pi_d_a5_a4_proc_1
      + 2611.898437500000 pi_d_a4_a6_proc_2
      + 1156.148437500000 pi_d_a4_a6_proc_1
      + 2469.060546875000 pi_d_a6_a4_proc_2
      + 1013.310546875000 pi_d_a6_a4_proc_1
      + 2527.343750000000 pi_d_a4_a7_proc_2
      + 2582.945312500000 pi_d_a4_a7_proc_1 + 11.107421875000 pi_d_a7_a4_proc_2
      + 66.708984375000 pi_d_a7_a4_proc_1 + 503.875000000000 pi_d_a4_a8_proc_1
      + 139.068359375000 pi_d_a8_a4_proc_1 + 1294.148437500000 pi_d_a4_a9_proc_2
      + 91.132812500000 pi_d_a4_a9_proc_1 + 3645.279296875000 pi_d_a9_a4_proc_2
      + 2442.263671875000 pi_d_a9_a4_proc_1
      + 2826.568359375000 pi_d_a5_a6_proc_2
      + 2604.162109375000 pi_d_a5_a6_proc_1 + 526.685546875000 pi_d_a5_a6_proc_0
      + 2309.992187500000 pi_d_a6_a5_proc_2
      + 2087.585937500000 pi_d_a6_a5_proc_1 + 10.109375000000 pi_d_a6_a5_proc_0
      + 2588.998046875000 pi_d_a5_a7_proc_2
      + 3877.943359375000 pi_d_a5_a7_proc_1
      + 2591.525390625000 pi_d_a5_a7_proc_0 + 5.054687500000 pi_d_a7_a5_proc_2
      + 1294 pi_d_a7_a5_proc_1 + 7.582031250000 pi_d_a7_a5_proc_0
      + 2590.697265625000 pi_d_a5_a8_proc_1
      + 2022.044921875000 pi_d_a5_a8_proc_0 + 574.535156250000 pi_d_a8_a5_proc_1
      + 5.882812500000 pi_d_a8_a5_proc_0 + 2644.603515625000 pi_d_a5_a9_proc_2
      + 2674.931640625000 pi_d_a5_a9_proc_1 + 304.283203125000 pi_d_a5_a9_proc_0
      + 2350.425781250000 pi_d_a9_a5_proc_2
      + 2380.753906250000 pi_d_a9_a5_proc_1 + 10.105468750000 pi_d_a9_a5_proc_0
      + 2557.750000000000 pi_d_a6_a7_proc_2
      + 3619.234375000000 pi_d_a6_a7_proc_1
      + 2833.230468750000 pi_d_a6_a7_proc_0 + 5.974609375000 pi_d_a7_a6_proc_2
      + 1067.458984375000 pi_d_a7_a6_proc_1 + 281.455078125000 pi_d_a7_a6_proc_0
      + 2590.527343750000 pi_d_a6_a8_proc_1
      + 2522.289062500000 pi_d_a6_a8_proc_0 + 89.455078125000 pi_d_a8_a6_proc_1
      + 21.216796875000 pi_d_a8_a6_proc_0 + 2796.193359375000 pi_d_a6_a9_proc_2
      + 2599.060546875000 pi_d_a6_a9_proc_1 + 728.826171875000 pi_d_a6_a9_proc_0
      + 2168.507812500000 pi_d_a9_a6_proc_2
      + 1971.375000000000 pi_d_a9_a6_proc_1 + 101.140625000000 pi_d_a9_a6_proc_0
      + 930.187500000000 pi_d_a7_a8_proc_1 + 1653.007812500000 pi_d_a7_a8_proc_0
      + 2229.990234375000 pi_d_a8_a7_proc_1
      + 2952.810546875000 pi_d_a8_a7_proc_0
      + 2416.373046875000 pi_d_a7_a9_proc_2
      + 3730.591796875000 pi_d_a7_a9_proc_1
      + 2651.416015625000 pi_d_a7_a9_proc_0 + 5.820312500000 pi_d_a9_a7_proc_2
      + 1320.039062500000 pi_d_a9_a7_proc_1 + 240.863281250000 pi_d_a9_a7_proc_0
      + 2631.962890625000 pi_d_a8_a9_proc_1
      + 2270.552734375000 pi_d_a8_a9_proc_0 + 411.957031250000 pi_d_a9_a8_proc_1
      + 50.546875000000 pi_d_a9_a8_proc_0 + 0.019531250000 pi_y2_a0_proc_1
      + 0.978515625000 pi_y2_a0_proc_2 + 0.998046875000 pi_y2_a1_proc_2
      + 0.082031250000 pi_y2_a2_proc_0 + 0.158203125000 pi_y2_a2_proc_1
      + 0.757812500000 pi_y2_a2_proc_2 + 0.841796875000 pi_y2_a3_proc_1
      + 0.156250000000 pi_y2_a3_proc_2 + 0.974609375000 pi_y2_a4_proc_1
      + 0.023437500000 pi_y2_a4_proc_2 + 0.996093750000 pi_y2_a5_proc_0
      + 0.001953125000 pi_y2_a5_proc_2 + 0.796875000000 pi_y2_a6_proc_0
      + 0.187500000000 pi_y2_a6_proc_1 + 0.013671875000 pi_y2_a6_proc_2
      + 0.001953125000 pi_y2_a7_proc_1 + 0.996093750000 pi_y2_a7_proc_2
      + 0.220703125000 pi_y2_a8_proc_0 + 0.777343750000 pi_y2_a8_proc_1
      + 0.882812500000 pi_y2_a9_proc_0 + 0.046875000000 pi_y2_a9_proc_1
      + 0.068359375000 pi_y2_a9_proc_2
Subject To
 c1: 0.001295336788 pi_nr_a0 + 0.000982318271 pi_nr_a1 + 0.001331557923 pi_nr_a2
     + 0.001182033097 pi_nr_a3 + 0.000931098696 pi_nr_a4
     + 0.001683501684 pi_nr_a5 + 0.001059322034 pi_nr_a6
     + 0.002169197397 pi_nr_a7 + 0.001162790698 pi_nr_a8
     + 0.000824402308 pi_nr_a9 + pi_p_a2_a4 + pi_p_a8_a9 + pi_p_a5_a3
     + pi_p_a2_a9 + pi_p_a5_a6 + pi_p_a8_a3 + pi_d_a1_a0_proc_2
     + 2588 pi_d_a0_a2_proc_1 + pi_d_a2_a0_proc_2 + 2589 pi_d_a2_a0_proc_1
     + pi_d_a0_a3_proc_2 + pi_d_a0_a3_proc_1 + 2588 pi_d_a3_a0_proc_2
     + 2588 pi_d_a3_a0_proc_1 + 2589 pi_d_a0_a4_proc_2 + 2589 pi_d_a0_a4_proc_1
     + 2588 pi_d_a0_a5_proc_2 + 3882 pi_d_a0_a5_proc_1 + pi_d_a5_a0_proc_2
     + 1295 pi_d_a5_a0_proc_1 + 2588 pi_d_a0_a6_proc_2 + 3882 pi_d_a0_a6_proc_1
     + pi_d_a6_a0_proc_2 + 1295 pi_d_a6_a0_proc_1 + 2588 pi_d_a0_a7_proc_1
     + pi_d_a7_a0_proc_2 + 2589 pi_d_a7_a0_proc_1 + 2588 pi_d_a0_a8_proc_1
     + pi_d_a8_a0_proc_1 + pi_d_a0_a9_proc_2 + 1295 pi_d_a0_a9_proc_1
     + 2588 pi_d_a9_a0_proc_2 + 3882 pi_d_a9_a0_proc_1 + pi_d_a2_a1_proc_2
     + 2589 pi_d_a1_a3_proc_2 + 2589 pi_d_a1_a4_proc_2 + 2588 pi_d_a1_a5_proc_2
     + pi_d_a5_a1_proc_2 + 2588 pi_d_a1_a6_proc_2 + pi_d_a6_a1_proc_2
     + pi_d_a1_a7_proc_2 + 2589 pi_d_a1_a9_proc_2 + pi_d_a2_a3_proc_2
     + pi_d_a2_a3_proc_1 + 2588 pi_d_a3_a2_proc_2 + 2588 pi_d_a3_a2_proc_1
     + 2589 pi_d_a2_a4_proc_2 + 2589 pi_d_a2_a4_proc_1 + pi_d_a2_a5_proc_2
     + 1295 pi_d_a2_a5_proc_1 + pi_d_a2_a5_proc_0 + 2588 pi_d_a5_a2_proc_2
     + 3882 pi_d_a5_a2_proc_1 + 2588 pi_d_a5_a2_proc_0 + 2589 pi_d_a2_a6_proc_2
     + 3883 pi_d_a2_a6_proc_1 + 2589 pi_d_a2_a6_proc_0 + 1294 pi_d_a6_a2_proc_1
     + pi_d_a2_a7_proc_2 + 2589 pi_d_a2_a7_proc_1 + 2589 pi_d_a2_a7_proc_0
     + 2588 pi_d_a7_a2_proc_1 + 2588 pi_d_a7_a2_proc_0 + 2588 pi_d_a2_a8_proc_1
     + 3882 pi_d_a2_a8_proc_0 + pi_d_a8_a2_proc_1 + 1295 pi_d_a8_a2_proc_0
     + 2589 pi_d_a2_a9_proc_2 + 3883 pi_d_a2_a9_proc_1 + 2589 pi_d_a2_a9_proc_0
     + 1294 pi_d_a9_a2_proc_1 + 2589 pi_d_a3_a4_proc_2 + pi_d_a3_a4_proc_1
     + 2588 pi_d_a4_a3_proc_2 + 3882 pi_d_a3_a5_proc_2 + 2588 pi_d_a3_a5_proc_1
     + 1295 pi_d_a5_a3_proc_2 + pi_d_a5_a3_proc_1 + 1294 pi_d_a3_a6_proc_2
     + 3883 pi_d_a6_a3_proc_2 + 2589 pi_d_a6_a3_proc_1 + 2588 pi_d_a3_a7_proc_2
     + 2588 pi_d_a3_a7_proc_1 + pi_d_a7_a3_proc_2 + pi_d_a7_a3_proc_1
     + pi_d_a8_a3_proc_1 + 3882 pi_d_a3_a9_proc_2 + 2588 pi_d_a3_a9_proc_1
     + 1295 pi_d_a9_a3_proc_2 + pi_d_a9_a3_proc_1 + 3882 pi_d_a4_a5_proc_2
     + 2588 pi_d_a4_a5_proc_1 + 1295 pi_d_a5_a4_proc_2 + pi_d_a5_a4_proc_1
     + 2688 pi_d_a4_a6_proc_2 + 1394 pi_d_a4_a6_proc_1 + 2489 pi_d_a6_a4_proc_2
     + 1195 pi_d_a6_a4_proc_1 + 2588 pi_d_a4_a7_proc_2 + 2588 pi_d_a4_a7_proc_1
     + pi_d_a7_a4_proc_2 + pi_d_a7_a4_proc_1 + pi_d_a8_a4_proc_1
     + 1294 pi_d_a4_a9_proc_2 + 3883 pi_d_a9_a4_proc_2 + 2589 pi_d_a9_a4_proc_1
     + 2589 pi_d_a5_a6_proc_2 + 2589 pi_d_a5_a6_proc_1 + pi_d_a5_a6_proc_0
     + 2588 pi_d_a6_a5_proc_2 + 2588 pi_d_a6_a5_proc_1 + 2589 pi_d_a5_a7_proc_2
     + 3883 pi_d_a5_a7_proc_1 + 2589 pi_d_a5_a7_proc_0 + 1294 pi_d_a7_a5_proc_1
     + 2588 pi_d_a5_a8_proc_1 + 2588 pi_d_a5_a8_proc_0 + pi_d_a8_a5_proc_1
     + pi_d_a8_a5_proc_0 + 2589 pi_d_a5_a9_proc_2 + 2589 pi_d_a5_a9_proc_1
     + pi_d_a5_a9_proc_0 + 2588 pi_d_a9_a5_proc_2 + 2588 pi_d_a9_a5_proc_1
     + 2588 pi_d_a6_a7_proc_2 + 3882 pi_d_a6_a7_proc_1 + 2588 pi_d_a6_a7_proc_0
     + pi_d_a7_a6_proc_2 + 1295 pi_d_a7_a6_proc_1 + pi_d_a7_a6_proc_0
     + 2588 pi_d_a6_a8_proc_1 + 2588 pi_d_a6_a8_proc_0 + pi_d_a8_a6_proc_1
     + pi_d_a8_a6_proc_0 + 2589 pi_d_a6_a9_proc_2 + 2589 pi_d_a6_a9_proc_1
     + pi_d_a6_a9_proc_0 + 2588 pi_d_a9_a6_proc_2 + 2588 pi_d_a9_a6_proc_1
     + 1294 pi_d_a7_a8_proc_0 + 2589 pi_d_a8_a7_proc_1 + 3883 pi_d_a8_a7_proc_0
     + 2588 pi_d_a7_a9_proc_2 + 3882 pi_d_a7_a9_proc_1 + 2588 pi_d_a7_a9_proc_0
     + pi_d_a9_a7_proc_2 + 1295 pi_d_a9_a7_proc_1 + pi_d_a9_a7_proc_0
     + 2589 pi_d_a8_a9_proc_1 + 2589 pi_d_a8_a9_proc_0 + pi_y2_a0_proc_2
     + pi_y2_a1_proc_2 + pi_y2_a2_proc_2 + pi_y2_a3_proc_1 + pi_y2_a4_proc_1
     + pi_y2_a5_proc_0 + pi_y2_a6_proc_0 + pi_y2_a7_proc_2 + pi_y2_a8_proc_1
     + pi_y2_a9_proc_0 = 0.000203169443
 c2: pi_nr_a0 + pi_nr_a1 + pi_nr_a2 + pi_nr_a3 + pi_nr_a4 + pi_nr_a5 + pi_nr_a6
     + pi_nr_a7 + pi_nr_a8 + pi_nr_a9 - pi_y1_a0 - pi_y1_a1 - pi_y1_a2
     - pi_y1_a3 - pi_y1_a4 - pi_y1_a5 - pi_y1_a6 - pi_y1_a7 - pi_y1_a8
     - pi_y1_a9 >= 1
 c3: pi_p_a0_a1 - pi_p_a3_a0 + pi_p_a0_a7 + pi_d_a0_a1_proc_2
     - pi_d_a1_a0_proc_2 + pi_d_a0_a2_proc_2 + pi_d_a0_a2_proc_1
     - pi_d_a2_a0_proc_2 - pi_d_a2_a0_proc_1 + pi_d_a0_a3_proc_2
     + pi_d_a0_a3_proc_1 - pi_d_a3_a0_proc_2 - pi_d_a3_a0_proc_1
     + pi_d_a0_a4_proc_2 + pi_d_a0_a4_proc_1 - pi_d_a4_a0_proc_2
     - pi_d_a4_a0_proc_1 + pi_d_a0_a5_proc_2 + pi_d_a0_a5_proc_1
     - pi_d_a5_a0_proc_2 - pi_d_a5_a0_proc_1 + pi_d_a0_a6_proc_2
     + pi_d_a0_a6_proc_1 - pi_d_a6_a0_proc_2 - pi_d_a6_a0_proc_1
     + pi_d_a0_a7_proc_2 + pi_d_a0_a7_proc_1 - pi_d_a7_a0_proc_2
     - pi_d_a7_a0_proc_1 + pi_d_a0_a8_proc_1 - pi_d_a8_a0_proc_1
     + pi_d_a0_a9_proc_2 + pi_d_a0_a9_proc_1 - pi_d_a9_a0_proc_2
     - pi_d_a9_a0_proc_1 >= 0
 c4: 1052 pi_p_a0_a1 + 1052 pi_p_a0_a7 + 1052 pi_d_a0_a2_proc_1
     + 1052 pi_d_a0_a3_proc_1 + 1052 pi_d_a0_a4_proc_1 + 1052 pi_d_a0_a5_proc_1
     + 1052 pi_d_a0_a6_proc_1 + 1052 pi_d_a0_a7_proc_1 + 1052 pi_d_a0_a8_proc_1
     + 1052 pi_d_a0_a9_proc_1 + pi_y1_a0 + pi_y2_a0_proc_1 >= 0
 c5: 772 pi_p_a0_a1 + 772 pi_p_a0_a7 + 772 pi_d_a0_a1_proc_2
     + 772 pi_d_a0_a2_proc_2 + 772 pi_d_a0_a3_proc_2 + 772 pi_d_a0_a4_proc_2
     + 772 pi_d_a0_a5_proc_2 + 772 pi_d_a0_a6_proc_2 + 772 pi_d_a0_a7_proc_2
     + 772 pi_d_a0_a9_proc_2 + pi_y1_a0 + pi_y2_a0_proc_2 >= 0
 c6: - pi_p_a0_a1 + pi_p_a1_a2 + pi_p_a1_a5 - pi_p_a7_a1 - pi_d_a0_a1_proc_2
     + pi_d_a1_a0_proc_2 + pi_d_a1_a2_proc_2 - pi_d_a2_a1_proc_2
     + pi_d_a1_a3_proc_2 - pi_d_a3_a1_proc_2 + pi_d_a1_a4_proc_2
     - pi_d_a4_a1_proc_2 + pi_d_a1_a5_proc_2 - pi_d_a5_a1_proc_2
     + pi_d_a1_a6_proc_2 - pi_d_a6_a1_proc_2 + pi_d_a1_a7_proc_2
     - pi_d_a7_a1_proc_2 + pi_d_a1_a9_proc_2 - pi_d_a9_a1_proc_2 >= 0
 c7: 1018 pi_p_a1_a2 + 1018 pi_p_a1_a5 + 1018 pi_d_a1_a0_proc_2
     + 1018 pi_d_a1_a2_proc_2 + 1018 pi_d_a1_a3_proc_2 + 1018 pi_d_a1_a4_proc_2
     + 1018 pi_d_a1_a5_proc_2 + 1018 pi_d_a1_a6_proc_2 + 1018 pi_d_a1_a7_proc_2
     + 1018 pi_d_a1_a9_proc_2 + pi_y1_a1 + pi_y2_a1_proc_2 >= 0
 c8: - pi_p_a1_a2 + pi_p_a2_a4 + pi_p_a2_a9 - pi_d_a0_a2_proc_2
     - pi_d_a0_a2_proc_1 + pi_d_a2_a0_proc_2 + pi_d_a2_a0_proc_1
     - pi_d_a1_a2_proc_2 + pi_d_a2_a1_proc_2 + pi_d_a2_a3_proc_2
     + pi_d_a2_a3_proc_1 - pi_d_a3_a2_proc_2 - pi_d_a3_a2_proc_1
     + pi_d_a2_a4_proc_2 + pi_d_a2_a4_proc_1 - pi_d_a4_a2_proc_2
     - pi_d_a4_a2_proc_1 + pi_d_a2_a5_proc_2 + pi_d_a2_a5_proc_1
     + pi_d_a2_a5_proc_0 - pi_d_a5_a2_proc_2 - pi_d_a5_a2_proc_1
     - pi_d_a5_a2_proc_0 + pi_d_a2_a6_proc_2 + pi_d_a2_a6_proc_1
     + pi_d_a2_a6_proc_0 - pi_d_a6_a2_proc_2 - pi_d_a6_a2_proc_1
     - pi_d_a6_a2_proc_0 + pi_d_a2_a7_proc_2 + pi_d_a2_a7_proc_1
     + pi_d_a2_a7_proc_0 - pi_d_a7_a2_proc_2 - pi_d_a7_a2_proc_1
     - pi_d_a7_a2_proc_0 + pi_d_a2_a8_proc_1 + pi_d_a2_a8_proc_0
     - pi_d_a8_a2_proc_1 - pi_d_a8_a2_proc_0 + pi_d_a2_a9_proc_2
     + pi_d_a2_a9_proc_1 + pi_d_a2_a9_proc_0 - pi_d_a9_a2_proc_2
     - pi_d_a9_a2_proc_1 - pi_d_a9_a2_proc_0 >= 0
 c9: 735 pi_p_a2_a4 + 735 pi_p_a2_a9 + 735 pi_d_a2_a5_proc_0
     + 735 pi_d_a2_a6_proc_0 + 735 pi_d_a2_a7_proc_0 + 735 pi_d_a2_a8_proc_0
     + 735 pi_d_a2_a9_proc_0 + pi_y1_a2 + pi_y2_a2_proc_0 >= 0
 c10: 843 pi_p_a2_a4 + 843 pi_p_a2_a9 + 843 pi_d_a2_a0_proc_1
      + 843 pi_d_a2_a3_proc_1 + 843 pi_d_a2_a4_proc_1 + 843 pi_d_a2_a5_proc_1
      + 843 pi_d_a2_a6_proc_1 + 843 pi_d_a2_a7_proc_1 + 843 pi_d_a2_a8_proc_1
      + 843 pi_d_a2_a9_proc_1 + pi_y1_a2 + pi_y2_a2_proc_1 >= 0
 c11: 751 pi_p_a2_a4 + 751 pi_p_a2_a9 + 751 pi_d_a2_a0_proc_2
      + 751 pi_d_a2_a1_proc_2 + 751 pi_d_a2_a3_proc_2 + 751 pi_d_a2_a4_proc_2
      + 751 pi_d_a2_a5_proc_2 + 751 pi_d_a2_a6_proc_2 + 751 pi_d_a2_a7_proc_2
      + 751 pi_d_a2_a9_proc_2 + pi_y1_a2 + pi_y2_a2_proc_2 >= 0
 c12: pi_p_a3_a0 + pi_p_a3_a8 - pi_p_a5_a3 - pi_p_a4_a3 - pi_p_a8_a3
      - pi_d_a0_a3_proc_2 - pi_d_a0_a3_proc_1 + pi_d_a3_a0_proc_2
      + pi_d_a3_a0_proc_1 - pi_d_a1_a3_proc_2 + pi_d_a3_a1_proc_2
      - pi_d_a2_a3_proc_2 - pi_d_a2_a3_proc_1 + pi_d_a3_a2_proc_2
      + pi_d_a3_a2_proc_1 + pi_d_a3_a4_proc_2 + pi_d_a3_a4_proc_1
      - pi_d_a4_a3_proc_2 - pi_d_a4_a3_proc_1 + pi_d_a3_a5_proc_2
      + pi_d_a3_a5_proc_1 - pi_d_a5_a3_proc_2 - pi_d_a5_a3_proc_1
      + pi_d_a3_a6_proc_2 + pi_d_a3_a6_proc_1 - pi_d_a6_a3_proc_2
      - pi_d_a6_a3_proc_1 + pi_d_a3_a7_proc_2 + pi_d_a3_a7_proc_1
      - pi_d_a7_a3_proc_2 - pi_d_a7_a3_proc_1 + pi_d_a3_a8_proc_1
      - pi_d_a8_a3_proc_1 + pi_d_a3_a9_proc_2 + pi_d_a3_a9_proc_1
      - pi_d_a9_a3_proc_2 - pi_d_a9_a3_proc_1 >= 0
 c13: 846 pi_p_a3_a0 + 846 pi_p_a3_a8 + 846 pi_d_a3_a0_proc_1
      + 846 pi_d_a3_a2_proc_1 + 846 pi_d_a3_a4_proc_1 + 846 pi_d_a3_a5_proc_1
      + 846 pi_d_a3_a6_proc_1 + 846 pi_d_a3_a7_proc_1 + 846 pi_d_a3_a8_proc_1
      + 846 pi_d_a3_a9_proc_1 + pi_y1_a3 + pi_y2_a3_proc_1 >= 0
 c14: 1095 pi_p_a3_a0 + 1095 pi_p_a3_a8 + 1095 pi_d_a3_a0_proc_2
      + 1095 pi_d_a3_a1_proc_2 + 1095 pi_d_a3_a2_proc_2 + 1095 pi_d_a3_a4_proc_2
      + 1095 pi_d_a3_a5_proc_2 + 1095 pi_d_a3_a6_proc_2 + 1095 pi_d_a3_a7_proc_2
      + 1095 pi_d_a3_a9_proc_2 + pi_y1_a3 + pi_y2_a3_proc_2 >= 0
 c15: - pi_p_a2_a4 + pi_p_a4_a3 - pi_d_a0_a4_proc_2 - pi_d_a0_a4_proc_1
      + pi_d_a4_a0_proc_2 + pi_d_a4_a0_proc_1 - pi_d_a1_a4_proc_2
      + pi_d_a4_a1_proc_2 - pi_d_a2_a4_proc_2 - pi_d_a2_a4_proc_1
      + pi_d_a4_a2_proc_2 + pi_d_a4_a2_proc_1 - pi_d_a3_a4_proc_2
      - pi_d_a3_a4_proc_1 + pi_d_a4_a3_proc_2 + pi_d_a4_a3_proc_1
      + pi_d_a4_a5_proc_2 + pi_d_a4_a5_proc_1 - pi_d_a5_a4_proc_2
      - pi_d_a5_a4_proc_1 + pi_d_a4_a6_proc_2 + pi_d_a4_a6_proc_1
      - pi_d_a6_a4_proc_2 - pi_d_a6_a4_proc_1 + pi_d_a4_a7_proc_2
      + pi_d_a4_a7_proc_1 - pi_d_a7_a4_proc_2 - pi_d_a7_a4_proc_1
      + pi_d_a4_a8_proc_1 - pi_d_a8_a4_proc_1 + pi_d_a4_a9_proc_2
      + pi_d_a4_a9_proc_1 - pi_d_a9_a4_proc_2 - pi_d_a9_a4_proc_1 >= 0
 c16: 1074 pi_p_a4_a3 + 1074 pi_d_a4_a0_proc_1 + 1074 pi_d_a4_a2_proc_1
      + 1074 pi_d_a4_a3_proc_1 + 1074 pi_d_a4_a5_proc_1 + 1074 pi_d_a4_a6_proc_1
      + 1074 pi_d_a4_a7_proc_1 + 1074 pi_d_a4_a8_proc_1 + 1074 pi_d_a4_a9_proc_1
      + pi_y1_a4 + pi_y2_a4_proc_1 >= 0
 c17: 1276 pi_p_a4_a3 + 1276 pi_d_a4_a0_proc_2 + 1276 pi_d_a4_a1_proc_2
      + 1276 pi_d_a4_a2_proc_2 + 1276 pi_d_a4_a3_proc_2 + 1276 pi_d_a4_a5_proc_2
      + 1276 pi_d_a4_a6_proc_2 + 1276 pi_d_a4_a7_proc_2 + 1276 pi_d_a4_a9_proc_2
      + pi_y1_a4 + pi_y2_a4_proc_2 >= 0
 c18: - pi_p_a1_a5 - pi_p_a6_a5 + pi_p_a5_a3 + pi_p_a5_a6 - pi_d_a0_a5_proc_2
      - pi_d_a0_a5_proc_1 + pi_d_a5_a0_proc_2 + pi_d_a5_a0_proc_1
      - pi_d_a1_a5_proc_2 + pi_d_a5_a1_proc_2 - pi_d_a2_a5_proc_2
      - pi_d_a2_a5_proc_1 - pi_d_a2_a5_proc_0 + pi_d_a5_a2_proc_2
      + pi_d_a5_a2_proc_1 + pi_d_a5_a2_proc_0 - pi_d_a3_a5_proc_2
      - pi_d_a3_a5_proc_1 + pi_d_a5_a3_proc_2 + pi_d_a5_a3_proc_1
      - pi_d_a4_a5_proc_2 - pi_d_a4_a5_proc_1 + pi_d_a5_a4_proc_2
      + pi_d_a5_a4_proc_1 + pi_d_a5_a6_proc_2 + pi_d_a5_a6_proc_1
      + pi_d_a5_a6_proc_0 - pi_d_a6_a5_proc_2 - pi_d_a6_a5_proc_1
      - pi_d_a6_a5_proc_0 + pi_d_a5_a7_proc_2 + pi_d_a5_a7_proc_1
      + pi_d_a5_a7_proc_0 - pi_d_a7_a5_proc_2 - pi_d_a7_a5_proc_1
      - pi_d_a7_a5_proc_0 + pi_d_a5_a8_proc_1 + pi_d_a5_a8_proc_0
      - pi_d_a8_a5_proc_1 - pi_d_a8_a5_proc_0 + pi_d_a5_a9_proc_2
      + pi_d_a5_a9_proc_1 + pi_d_a5_a9_proc_0 - pi_d_a9_a5_proc_2
      - pi_d_a9_a5_proc_1 - pi_d_a9_a5_proc_0 >= 0
 c19: 594 pi_p_a5_a3 + 594 pi_p_a5_a6 + 594 pi_d_a5_a2_proc_0
      + 594 pi_d_a5_a6_proc_0 + 594 pi_d_a5_a7_proc_0 + 594 pi_d_a5_a8_proc_0
      + 594 pi_d_a5_a9_proc_0 + pi_y1_a5 + pi_y2_a5_proc_0 >= 0
 c20: 1075 pi_p_a5_a3 + 1075 pi_p_a5_a6 + 1075 pi_d_a5_a0_proc_1
      + 1075 pi_d_a5_a2_proc_1 + 1075 pi_d_a5_a3_proc_1 + 1075 pi_d_a5_a4_proc_1
      + 1075 pi_d_a5_a6_proc_1 + 1075 pi_d_a5_a7_proc_1 + 1075 pi_d_a5_a8_proc_1
      + 1075 pi_d_a5_a9_proc_1 + pi_y1_a5 + pi_y2_a5_proc_1 >= 0
 c21: 1232 pi_p_a5_a3 + 1232 pi_p_a5_a6 + 1232 pi_d_a5_a0_proc_2
      + 1232 pi_d_a5_a1_proc_2 + 1232 pi_d_a5_a2_proc_2 + 1232 pi_d_a5_a3_proc_2
      + 1232 pi_d_a5_a4_proc_2 + 1232 pi_d_a5_a6_proc_2 + 1232 pi_d_a5_a7_proc_2
      + 1232 pi_d_a5_a9_proc_2 + pi_y1_a5 + pi_y2_a5_proc_2 >= 0
 c22: pi_p_a6_a5 - pi_p_a9_a6 - pi_p_a5_a6 + pi_p_a6_a8 - pi_d_a0_a6_proc_2
      - pi_d_a0_a6_proc_1 + pi_d_a6_a0_proc_2 + pi_d_a6_a0_proc_1
      - pi_d_a1_a6_proc_2 + pi_d_a6_a1_proc_2 - pi_d_a2_a6_proc_2
      - pi_d_a2_a6_proc_1 - pi_d_a2_a6_proc_0 + pi_d_a6_a2_proc_2
      + pi_d_a6_a2_proc_1 + pi_d_a6_a2_proc_0 - pi_d_a3_a6_proc_2
      - pi_d_a3_a6_proc_1 + pi_d_a6_a3_proc_2 + pi_d_a6_a3_proc_1
      - pi_d_a4_a6_proc_2 - pi_d_a4_a6_proc_1 + pi_d_a6_a4_proc_2
      + pi_d_a6_a4_proc_1 - pi_d_a5_a6_proc_2 - pi_d_a5_a6_proc_1
      - pi_d_a5_a6_proc_0 + pi_d_a6_a5_proc_2 + pi_d_a6_a5_proc_1
      + pi_d_a6_a5_proc_0 + pi_d_a6_a7_proc_2 + pi_d_a6_a7_proc_1
      + pi_d_a6_a7_proc_0 - pi_d_a7_a6_proc_2 - pi_d_a7_a6_proc_1
      - pi_d_a7_a6_proc_0 + pi_d_a6_a8_proc_1 + pi_d_a6_a8_proc_0
      - pi_d_a8_a6_proc_1 - pi_d_a8_a6_proc_0 + pi_d_a6_a9_proc_2
      + pi_d_a6_a9_proc_1 + pi_d_a6_a9_proc_0 - pi_d_a9_a6_proc_2
      - pi_d_a9_a6_proc_1 - pi_d_a9_a6_proc_0 >= 0
 c23: 944 pi_p_a6_a5 + 944 pi_p_a6_a8 + 944 pi_d_a6_a2_proc_0
      + 944 pi_d_a6_a5_proc_0 + 944 pi_d_a6_a7_proc_0 + 944 pi_d_a6_a8_proc_0
      + 944 pi_d_a6_a9_proc_0 + pi_y1_a6 + pi_y2_a6_proc_0 >= 0
 c24: 981 pi_p_a6_a5 + 981 pi_p_a6_a8 + 981 pi_d_a6_a0_proc_1
      + 981 pi_d_a6_a2_proc_1 + 981 pi_d_a6_a3_proc_1 + 981 pi_d_a6_a4_proc_1
      + 981 pi_d_a6_a5_proc_1 + 981 pi_d_a6_a7_proc_1 + 981 pi_d_a6_a8_proc_1
      + 981 pi_d_a6_a9_proc_1 + pi_y1_a6 + pi_y2_a6_proc_1 >= 0
 c25: 904 pi_p_a6_a5 + 904 pi_p_a6_a8 + 904 pi_d_a6_a0_proc_2
      + 904 pi_d_a6_a1_proc_2 + 904 pi_d_a6_a2_proc_2 + 904 pi_d_a6_a3_proc_2
      + 904 pi_d_a6_a4_proc_2 + 904 pi_d_a6_a5_proc_2 + 904 pi_d_a6_a7_proc_2
      + 904 pi_d_a6_a9_proc_2 + pi_y1_a6 + pi_y2_a6_proc_2 >= 0
 c26: pi_p_a7_a1 - pi_p_a0_a7 - pi_d_a0_a7_proc_2 - pi_d_a0_a7_proc_1
      + pi_d_a7_a0_proc_2 + pi_d_a7_a0_proc_1 - pi_d_a1_a7_proc_2
      + pi_d_a7_a1_proc_2 - pi_d_a2_a7_proc_2 - pi_d_a2_a7_proc_1
      - pi_d_a2_a7_proc_0 + pi_d_a7_a2_proc_2 + pi_d_a7_a2_proc_1
      + pi_d_a7_a2_proc_0 - pi_d_a3_a7_proc_2 - pi_d_a3_a7_proc_1
      + pi_d_a7_a3_proc_2 + pi_d_a7_a3_proc_1 - pi_d_a4_a7_proc_2
      - pi_d_a4_a7_proc_1 + pi_d_a7_a4_proc_2 + pi_d_a7_a4_proc_1
      - pi_d_a5_a7_proc_2 - pi_d_a5_a7_proc_1 - pi_d_a5_a7_proc_0
      + pi_d_a7_a5_proc_2 + pi_d_a7_a5_proc_1 + pi_d_a7_a5_proc_0
      - pi_d_a6_a7_proc_2 - pi_d_a6_a7_proc_1 - pi_d_a6_a7_proc_0
      + pi_d_a7_a6_proc_2 + pi_d_a7_a6_proc_1 + pi_d_a7_a6_proc_0
      + pi_d_a7_a8_proc_1 + pi_d_a7_a8_proc_0 - pi_d_a8_a7_proc_1
      - pi_d_a8_a7_proc_0 + pi_d_a7_a9_proc_2 + pi_d_a7_a9_proc_1
      + pi_d_a7_a9_proc_0 - pi_d_a9_a7_proc_2 - pi_d_a9_a7_proc_1
      - pi_d_a9_a7_proc_0 >= 0
 c27: 1294 pi_p_a7_a1 + 1294 pi_d_a7_a2_proc_0 + 1294 pi_d_a7_a5_proc_0
      + 1294 pi_d_a7_a6_proc_0 + 1294 pi_d_a7_a8_proc_0 + 1294 pi_d_a7_a9_proc_0
      + pi_y1_a7 + pi_y2_a7_proc_0 >= 0
 c28: 824 pi_p_a7_a1 + 824 pi_d_a7_a0_proc_1 + 824 pi_d_a7_a2_proc_1
      + 824 pi_d_a7_a3_proc_1 + 824 pi_d_a7_a4_proc_1 + 824 pi_d_a7_a5_proc_1
      + 824 pi_d_a7_a6_proc_1 + 824 pi_d_a7_a8_proc_1 + 824 pi_d_a7_a9_proc_1
      + pi_y1_a7 + pi_y2_a7_proc_1 >= 0
 c29: 461 pi_p_a7_a1 + 461 pi_d_a7_a0_proc_2 + 461 pi_d_a7_a1_proc_2
      + 461 pi_d_a7_a2_proc_2 + 461 pi_d_a7_a3_proc_2 + 461 pi_d_a7_a4_proc_2
      + 461 pi_d_a7_a5_proc_2 + 461 pi_d_a7_a6_proc_2 + 461 pi_d_a7_a9_proc_2
      + pi_y1_a7 + pi_y2_a7_proc_2 >= 0
 c30: - pi_p_a3_a8 + pi_p_a8_a9 - pi_p_a6_a8 + pi_p_a8_a3 - pi_d_a0_a8_proc_1
      + pi_d_a8_a0_proc_1 - pi_d_a2_a8_proc_1 - pi_d_a2_a8_proc_0
      + pi_d_a8_a2_proc_1 + pi_d_a8_a2_proc_0 - pi_d_a3_a8_proc_1
      + pi_d_a8_a3_proc_1 - pi_d_a4_a8_proc_1 + pi_d_a8_a4_proc_1
      - pi_d_a5_a8_proc_1 - pi_d_a5_a8_proc_0 + pi_d_a8_a5_proc_1
      + pi_d_a8_a5_proc_0 - pi_d_a6_a8_proc_1 - pi_d_a6_a8_proc_0
      + pi_d_a8_a6_proc_1 + pi_d_a8_a6_proc_0 - pi_d_a7_a8_proc_1
      - pi_d_a7_a8_proc_0 + pi_d_a8_a7_proc_1 + pi_d_a8_a7_proc_0
      + pi_d_a8_a9_proc_1 + pi_d_a8_a9_proc_0 - pi_d_a9_a8_proc_1
      - pi_d_a9_a8_proc_0 >= 0
 c31: 783 pi_p_a8_a9 + 783 pi_p_a8_a3 + 783 pi_d_a8_a2_proc_0
      + 783 pi_d_a8_a5_proc_0 + 783 pi_d_a8_a6_proc_0 + 783 pi_d_a8_a7_proc_0
      + 783 pi_d_a8_a9_proc_0 + pi_y1_a8 + pi_y2_a8_proc_0 >= 0
 c32: 860 pi_p_a8_a9 + 860 pi_p_a8_a3 + 860 pi_d_a8_a0_proc_1
      + 860 pi_d_a8_a2_proc_1 + 860 pi_d_a8_a3_proc_1 + 860 pi_d_a8_a4_proc_1
      + 860 pi_d_a8_a5_proc_1 + 860 pi_d_a8_a6_proc_1 + 860 pi_d_a8_a7_proc_1
      + 860 pi_d_a8_a9_proc_1 + pi_y1_a8 + pi_y2_a8_proc_1 >= 0
 c33: pi_p_a9_a6 - pi_p_a8_a9 - pi_p_a2_a9 - pi_d_a0_a9_proc_2
      - pi_d_a0_a9_proc_1 + pi_d_a9_a0_proc_2 + pi_d_a9_a0_proc_1
      - pi_d_a1_a9_proc_2 + pi_d_a9_a1_proc_2 - pi_d_a2_a9_proc_2
      - pi_d_a2_a9_proc_1 - pi_d_a2_a9_proc_0 + pi_d_a9_a2_proc_2
      + pi_d_a9_a2_proc_1 + pi_d_a9_a2_proc_0 - pi_d_a3_a9_proc_2
      - pi_d_a3_a9_proc_1 + pi_d_a9_a3_proc_2 + pi_d_a9_a3_proc_1
      - pi_d_a4_a9_proc_2 - pi_d_a4_a9_proc_1 + pi_d_a9_a4_proc_2
      + pi_d_a9_a4_proc_1 - pi_d_a5_a9_proc_2 - pi_d_a5_a9_proc_1
      - pi_d_a5_a9_proc_0 + pi_d_a9_a5_proc_2 + pi_d_a9_a5_proc_1
      + pi_d_a9_a5_proc_0 - pi_d_a6_a9_proc_2 - pi_d_a6_a9_proc_1
      - pi_d_a6_a9_proc_0 + pi_d_a9_a6_proc_2 + pi_d_a9_a6_proc_1
      + pi_d_a9_a6_proc_0 - pi_d_a7_a9_proc_2 - pi_d_a7_a9_proc_1
      - pi_d_a7_a9_proc_0 + pi_d_a9_a7_proc_2 + pi_d_a9_a7_proc_1
      + pi_d_a9_a7_proc_0 - pi_d_a8_a9_proc_1 - pi_d_a8_a9_proc_0
      + pi_d_a9_a8_proc_1 + pi_d_a9_a8_proc_0 >= 0
 c34: 1213 pi_p_a9_a6 + 1213 pi_d_a9_a2_proc_0 + 1213 pi_d_a9_a5_proc_0
      + 1213 pi_d_a9_a6_proc_0 + 1213 pi_d_a9_a7_proc_0 + 1213 pi_d_a9_a8_proc_0
      + pi_y1_a9 + pi_y2_a9_proc_0 >= 0
 c35: 1007 pi_p_a9_a6 + 1007 pi_d_a9_a0_proc_1 + 1007 pi_d_a9_a2_proc_1
      + 1007 pi_d_a9_a3_proc_1 + 1007 pi_d_a9_a4_proc_1 + 1007 pi_d_a9_a5_proc_1
      + 1007 pi_d_a9_a6_proc_1 + 1007 pi_d_a9_a7_proc_1 + 1007 pi_d_a9_a8_proc_1
      + pi_y1_a9 + pi_y2_a9_proc_1 >= 0
 c36: 1013 pi_p_a9_a6 + 1013 pi_d_a9_a0_proc_2 + 1013 pi_d_a9_a1_proc_2
      + 1013 pi_d_a9_a2_proc_2 + 1013 pi_d_a9_a3_proc_2 + 1013 pi_d_a9_a4_proc_2
      + 1013 pi_d_a9_a5_proc_2 + 1013 pi_d_a9_a6_proc_2 + 1013 pi_d_a9_a7_proc_2
      + pi_y1_a9 + pi_y2_a9_proc_2 >= 0

Bounds
       pi_y1_a0 Free
       pi_y1_a1 Free
       pi_y1_a2 Free
       pi_y1_a3 Free
       pi_y1_a4 Free
       pi_y1_a5 Free
       pi_y1_a6 Free
       pi_y1_a7 Free
       pi_y1_a8 Free
       pi_y1_a9 Free
End
