benchmark/results/graph__10-1000-0.10-03_13/graph__10-1000-0.10-03_13_Quinton_Benders_aux.txt
solution for: Quinton Benders_auxiliary_sub
objective: 0.000203832
status: OPTIMAL_SOLUTION(2)
pi_p_a1_a2=0.000
pi_p_a3_a0=0.000
pi_p_a2_a4=0.000
pi_p_a7_a1=0.000
pi_p_a0_a7=0.000
pi_p_a4_a3=0.000
pi_y1_a0=-0.157
pi_y1_a1=-0.208
pi_y1_a2=-0.150
pi_y1_a3=-0.172
pi_y1_a4=-0.219
pi_y1_a7=-0.094
